p cnf 29 20
-14 -4 0
-14 -5 0
-15 -15 0
6 -1 0
-17 -9 0
2 -14 0
-7 -13 0
-16 20 0
-3 14 0
-9 7 0
12 3 0
10 -16 0
4 -9 0
-7 14 0
18 -13 0
-7 16 0
-13 9 0
-17 3 0
13 14 0
-19 17 0
-14 -10 0
4 12 0
17 16 0
-11 19 0
-13 18 0
18 6 0
-20 -15 0
-13 -3 0
4 19 0
